
Gurobi 10.0.2 (win64) logging started Fri Jun 21 03:40:24 2024

Set parameter LogFile to value "log/log_difficulty1_MNL_DESKTOP-S7OVCUR_9_12.txt"
Gurobi Optimizer version 10.0.2 build v10.0.2rc0 (win64)

CPU model: Intel(R) Core(TM) i7-10510U CPU @ 1.80GHz, instruction set [SSE2|AVX|AVX2]
Thread count: 4 physical cores, 8 logical processors, using up to 8 threads

Optimize a model with 2020 rows, 676 columns and 4612 nonzeros
Model fingerprint: 0x75b1e5a9
Variable types: 364 continuous, 312 integer (312 binary)
Coefficient statistics:
  Matrix range     [1e-03, 9e+02]
  Objective range  [1e+02, 6e+02]
  Bounds range     [1e+00, 1e+00]
  RHS range        [1e+00, 1e+00]
Found heuristic solution: objective -0.0000000
Presolve removed 224 rows and 104 columns
Presolve time: 0.03s
Presolved: 1796 rows, 572 columns, 4257 nonzeros
Found heuristic solution: objective 2462.5006019
Variable types: 308 continuous, 264 integer (264 binary)

Root relaxation: objective 1.596000e+04, 406 iterations, 0.00 seconds (0.00 work units)

    Nodes    |    Current Node    |     Objective Bounds      |     Work
 Expl Unexpl |  Obj  Depth IntInf | Incumbent    BestBd   Gap | It/Node Time

     0     0 15959.9982    0  156 2462.50060 15959.9982   548%     -    0s
H    0     0                    8958.7060755 15959.9982  78.2%     -    0s
H    0     0                    9680.5610544 15959.9982  64.9%     -    0s
H    0     0                    9686.1145419 15902.5635  64.2%     -    0s
H    0     0                    12592.424619 15192.9191  20.7%     -    0s
H    0     0                    13145.402439 15192.9191  15.6%     -    0s
     0     0 15192.9191    0  183 13145.4024 15192.9191  15.6%     -    0s
H    0     0                    13768.853559 15176.1663  10.2%     -    0s
     0     0 15176.1663    0  186 13768.8536 15176.1663  10.2%     -    0s
     0     0 15175.5189    0  189 13768.8536 15175.5189  10.2%     -    0s
H    0     0                    13773.653306 15175.5189  10.2%     -    0s
H    0     0                    14046.314085 14771.7029  5.16%     -    0s
     0     0 14771.7029    0  197 14046.3141 14771.7029  5.16%     -    0s
H    0     0                    14097.953794 14771.7029  4.78%     -    0s
H    0     0                    14332.393384 14724.5203  2.74%     -    0s
     0     0 14724.5203    0  202 14332.3934 14724.5203  2.74%     -    0s
     0     0 14722.4930    0  204 14332.3934 14722.4930  2.72%     -    0s
H    0     0                    14502.580605 14722.4930  1.52%     -    0s
     0     0 14722.4930    0  204 14502.5806 14722.4930  1.52%     -    0s
     0     0 14641.6687    0  194 14502.5806 14641.6687  0.96%     -    0s
     0     0 14631.4863    0  198 14502.5806 14631.4863  0.89%     -    0s
     0     0 14631.1008    0  196 14502.5806 14631.1008  0.89%     -    0s
     0     0 14586.3656    0  198 14502.5806 14586.3656  0.58%     -    0s
     0     0 14578.7032    0  200 14502.5806 14578.7032  0.52%     -    0s
     0     0 14578.6954    0  200 14502.5806 14578.6954  0.52%     -    0s
     0     0 14570.4153    0  200 14502.5806 14570.4153  0.47%     -    0s
     0     0 14569.8815    0  197 14502.5806 14569.8815  0.46%     -    0s
     0     0 14552.9627    0  200 14502.5806 14552.9627  0.35%     -    0s
     0     0 14550.3807    0  200 14502.5806 14550.3807  0.33%     -    0s
     0     0 14535.6192    0  198 14502.5806 14535.6192  0.23%     -    0s
     0     0 14517.7712    0  155 14502.5806 14517.7712  0.10%     -    0s
     0     2 14517.7712    0  155 14502.5806 14517.7712  0.10%     -    0s

Cutting planes:
  Gomory: 29
  Implied bound: 23
  MIR: 55
  Flow cover: 97
  RLT: 50
  Relax-and-lift: 8
  BQP: 10

Explored 19 nodes (2716 simplex iterations) in 0.82 seconds (0.31 work units)
Thread count was 8 (of 8 available processors)

Solution count 10: 14502.6 14332.4 14098 ... 9680.56

Optimal solution found (tolerance 1.00e-04)
Best objective 1.450258060469e+04, best bound 1.450258501865e+04, gap 0.0000%
